<number of tasks>
50

<cycle time>
1000

<order strength>
0.205


<task times>
1 567
2 46
3 64
4 292
5 120
6 517
7 380
8 206
9 118
10 178
11 138
12 220
13 510
14 222
15 244
16 52
17 291
18 291
19 65
20 130
21 279
22 501
23 323
24 145
25 76
26 169
27 38
28 96
29 293
30 93
31 54
32 109
33 513
34 85
35 29
36 243
37 68
38 61
39 228
40 254
41 49
42 72
43 36
44 199
45 409
46 518
47 470
48 406
49 48
50 45

<precedence relations>
1,9
2,10
3,8
3,13
4,11
4,12
5,12
5,13
5,26
8,16
9,15
10,18
11,14
11,28
12,17
12,19
12,20
13,21
14,22
15,23
16,27
17,24
18,26
18,36
18,37
19,25
19,28
20,30
21,29
22,34
23,31
24,34
25,33
26,32
26,35
28,37
28,42
29,36
31,39
32,38
33,39
34,42
34,43
36,43
37,40
37,41
38,44
39,45
40,48
41,47
43,46
44,49
45,50

<end>
